p edge 116 273
e 1 2
e 1 6
e 1 8
e 1 13
e 1 15
e 1 26
e 1 35
e 1 36
e 1 39
e 1 58
e 1 62
e 1 73
e 1 74
e 1 101
e 2 5
e 2 18
e 2 25
e 2 31
e 2 36
e 2 48
e 3 19
e 3 21
e 3 30
e 3 33
e 3 51
e 3 76
e 3 80
e 3 88
e 3 105
e 4 5
e 4 11
e 4 23
e 5 25
e 5 32
e 5 70
e 6 24
e 6 33
e 6 38
e 6 52
e 6 65
e 6 71
e 6 75
e 6 89
e 7 10
e 7 14
e 7 19
e 7 41
e 7 42
e 7 44
e 7 54
e 7 98
e 7 99
e 7 100
e 8 23
e 8 35
e 8 48
e 8 64
e 8 70
e 8 73
e 8 74
e 9 37
e 9 39
e 9 52
e 9 71
e 10 12
e 10 14
e 10 19
e 10 41
e 10 53
e 10 56
e 10 57
e 10 66
e 10 69
e 10 81
e 10 85
e 10 98
e 10 99
e 10 100
e 10 102
e 10 103
e 11 20
e 11 23
e 11 36
e 11 43
e 11 72
e 12 14
e 12 19
e 12 30
e 12 53
e 12 56
e 12 57
e 12 66
e 12 69
e 12 81
e 12 102
e 12 103
e 13 16
e 13 23
e 14 19
e 14 29
e 14 41
e 14 53
e 14 57
e 14 98
e 14 99
e 14 100
e 15 26
e 15 28
e 15 37
e 15 39
e 15 40
e 15 54
e 15 77
e 16 17
e 16 18
e 16 23
e 16 26
e 16 28
e 16 42
e 16 45
e 16 46
e 17 18
e 17 26
e 17 29
e 17 53
e 17 55
e 17 56
e 17 79
e 17 81
e 17 109
e 17 110
e 18 26
e 18 30
e 18 31
e 18 61
e 19 29
e 19 42
e 19 54
e 19 57
e 19 80
e 20 28
e 20 40
e 20 43
e 20 59
e 20 62
e 20 72
e 21 22
e 22 32
e 22 34
e 22 51
e 22 64
e 22 75
e 22 92
e 24 32
e 24 38
e 24 52
e 24 61
e 24 63
e 24 65
e 24 71
e 26 39
e 26 54
e 27 38
e 27 52
e 28 40
e 28 46
e 28 77
e 29 53
e 29 56
e 29 57
e 29 81
e 30 61
e 31 33
e 31 50
e 32 61
e 32 63
e 32 70
e 32 75
e 33 88
e 34 40
e 34 64
e 34 77
e 34 90
e 34 91
e 34 97
e 35 59
e 35 73
e 35 74
e 35 84
e 36 87
e 36 115
e 37 47
e 38 52
e 38 65
e 38 67
e 38 71
e 38 94
e 38 95
e 40 77
e 40 97
e 41 58
e 41 98
e 41 99
e 41 100
e 42 45
e 42 54
e 43 72
e 43 96
e 44 49
e 44 104
e 45 46
e 47 51
e 47 86
e 49 83
e 49 104
e 50 68
e 51 76
e 52 65
e 52 71
e 53 56
e 53 57
e 53 81
e 55 69
e 55 78
e 55 79
e 55 106
e 55 109
e 55 110
e 56 66
e 56 69
e 56 81
e 56 102
e 56 103
e 59 62
e 59 84
e 60 67
e 60 93
e 61 63
e 62 101
e 64 70
e 65 71
e 66 69
e 66 102
e 66 103
e 67 93
e 67 94
e 67 95
e 68 82
e 69 78
e 69 79
e 69 102
e 69 103
e 69 106
e 72 96
e 73 74
e 75 89
e 76 107
e 78 79
e 78 106
e 79 106
e 86 108
e 87 115
e 90 91
e 94 95
e 98 99
e 98 100
e 99 100
e 102 103
e 109 110
e 111 116
e 112 113
e 112 114
e 113 114
